SDVRPTW/PR09.sol
Route #1: 182 117 135 183 10 177 64 166
Route #2: 82 109 107 215 25 193
Route #3: 201 155 132 43 179 154 74 88 200 13 112 160
Route #4:
Route #5: 22 147 167 125 89 40 38 39 7 6 27
Route #6: 158 123 146 34 114 96 121 130 59 46 149
Route #7: 171 71 120 102 204 202 178
Route #8: 159 100 57 9 194 143 53 42 126 213 161 104 81
Route #9: 131 87 163 8 133 91 209 97 51
Route #10: 92 173 47 162 5 78 189 170 206
Route #11: 105 49 103 210 141 113 45 77 86 137
Route #12: 176 56 80 79 41 95 140 106
Route #13: 98 68 83 50 124 20 115 138 54 174 84 136
Route #14: 72 139 4 169 35 44 12 188 90 58 21
Route #15: 165 37 134 108 198 60 184 164 129
Route #16: 195 67 17 208 62 207 16 52
Route #17: 76 111 110 23 29 31 1 148 30 18 191 69 157
Route #18: 66 94 203 119 214 199 70 212 116 128 190
Route #19: 181 187 2 99 93 197 14 152
Route #20: 73 75 168 172 145 205 127
Route #21: 36 118 55 153 211 61 142 85 33
Route #22: 156 180 101 24 151 48 196 63 122 11
Route #23: 192 19 216 65 15 186 185
Route #24: 26 28 175 3 32 144 150
Cost: 4804571
